RT is False
Default write of storage_offers_DA.csv just to have a file (but constraint should be inactive)
Reading model...
...model read.
creating competitive generators file...
...competitive generators recorded.
Loading data...
.. day-ahead data with real-time VRE data read.
Compiling instance...
...instance created.
Creating Offer Mitigation (model will solve as dispatch if TRUE)...
NOTE: storage offers will not be mitigated
...storage offer mitigation file created
Converting model to MPEC...
...converted
NOTE: initial MIP solve with only storage competitive to get feasible solution
Solving...

Welcome to IBM(R) ILOG(R) CPLEX(R) Interactive Optimizer 12.9.0.0
  with Simplex, Mixed Integer & Barrier Optimizers
5725-A06 5725-A29 5724-Y48 5724-Y49 5724-Y54 5724-Y55 5655-Y21
Copyright IBM Corp. 1988, 2019.  All Rights Reserved.

Type 'help' for a list of available commands.
Type 'help' followed by a command name for more
information on commands.

CPLEX> Logfile 'cplex.log' closed.
Logfile 'C:\Users\llavin\Desktop\test826\logs\tmp8syvbxpb.cplex.log' open.
CPLEX> New value for parallel optimization mode: -1
CPLEX> New value for emphasis for MIP optimization: 1
CPLEX> New value for mixed integer optimality gap tolerance: 0.01
CPLEX> New value for integrality tolerance: 1e-12
CPLEX> New value for deterministic time limit in ticks: 75000
CPLEX> Problem 'C:\Users\llavin\Desktop\test826\logs\tmpcjmom21b.pyomo.lp' read.
Read time = 0.22 sec. (13.92 ticks)
CPLEX> Problem name         : C:\Users\llavin\Desktop\test826\logs\tmpcjmom21b.pyomo.lp
Objective sense      : Maximize
Variables            :   53809  [Nneg: 1,  Box: 22004,  Free: 4464,
                                 Binary: 27340]
Objective nonzeros   :    9029
Linear constraints   :  123253  [Less: 41346,  Greater: 59096,  Equal: 22811]
  Nonzeros           :  293217
  RHS nonzeros       :   67491

Variables            : Min LB: -5000.000        Max UB: 1000000.       
Objective nonzeros   : Min   : 0.3666667        Max   : 2500.000       
Linear constraints   :
  Nonzeros           : Min   : 0.3666667        Max   : 1000000.       
  RHS nonzeros       : Min   : 0.3666667        Max   : 1000000.       
CPLEX> CPXPARAM_Parallel                                -1
CPXPARAM_Emphasis_MIP                            1
CPXPARAM_DetTimeLimit                            75000
CPXPARAM_MIP_Tolerances_MIPGap                   0.01
CPXPARAM_MIP_Tolerances_Integrality              9.9999999999999998e-13
Tried aggregator 4 times.
MIP Presolve eliminated 88648 rows and 18951 columns.
MIP Presolve added 3380 rows and 0 columns.
MIP Presolve modified 24831 coefficients.
Aggregator did 13008 substitutions.
Reduced MIP has 24977 rows, 21294 columns, and 71843 nonzeros.
Reduced MIP has 8424 binaries, 0 generals, 0 SOSs, and 0 indicators.
Presolve time = 0.33 sec. (192.67 ticks)
Probing fixed 418 vars, tightened 3913 bounds.
Probing time = 0.06 sec. (19.00 ticks)
Tried aggregator 2 times.
MIP Presolve eliminated 940 rows and 838 columns.
MIP Presolve modified 3035 coefficients.
Aggregator did 24 substitutions.
Reduced MIP has 24013 rows, 20432 columns, and 69043 nonzeros.
Reduced MIP has 8006 binaries, 0 generals, 0 SOSs, and 0 indicators.
Presolve time = 0.11 sec. (89.32 ticks)
Probing fixed 0 vars, tightened 246 bounds.
Probing time = 0.14 sec. (22.77 ticks)
Clique table members: 44796.
MIP emphasis: integer feasibility.
MIP search method: dynamic search.
Parallel mode: opportunistic, using up to 32 threads.
Root relaxation solution time = 0.38 sec. (559.98 ticks)

        Nodes                                         Cuts/
   Node  Left     Objective  IInf  Best Integer    Best Bound    ItCnt     Gap

      0     0        0.0000    54                      0.0000     4636         
*     0+    0                            0.0000        0.0000             0.00%
      0     0        cutoff              0.0000        0.0000     4636    0.00%
Elapsed time = 1.52 sec. (1168.33 ticks, tree = 0.01 MB, solutions = 1)

Root node processing (before b&c):
  Real time             =    1.55 sec. (1170.27 ticks)
Parallel b&c, 32 threads:
  Real time             =    0.00 sec. (0.00 ticks)
  Sync time (average)   =    0.00 sec.
  Wait time (average)   =    0.00 sec.
                          ------------
Total (root+branch&cut) =    1.55 sec. (1170.27 ticks)

Solution pool: 1 solution saved.

MIP - Integer optimal solution:  Objective =  5.6797944126e-10
Solution time =    1.59 sec.  Iterations = 4636  Nodes = 0
Deterministic time = 1170.43 ticks  (734.27 ticks/sec)

CPLEX> Incumbent solution written to file 'C:\Users\llavin\Desktop\test826\logs\tmp2ztn_wnu.cplex.sol'.
CPLEX> NOTE: no warmstart specified for MIP iteration, default behavior is true
NOTE: resolving with all competitive generators using storage-only solution to warmstart
Solving...

Welcome to IBM(R) ILOG(R) CPLEX(R) Interactive Optimizer 12.9.0.0
  with Simplex, Mixed Integer & Barrier Optimizers
5725-A06 5725-A29 5724-Y48 5724-Y49 5724-Y54 5724-Y55 5655-Y21
Copyright IBM Corp. 1988, 2019.  All Rights Reserved.

Type 'help' for a list of available commands.
Type 'help' followed by a command name for more
information on commands.

CPLEX> Logfile 'cplex.log' closed.
Logfile 'C:\Users\llavin\Desktop\test826\logs\tmpgfo4rhh5.cplex.log' open.
CPLEX> New value for parallel optimization mode: -1
CPLEX> New value for emphasis for MIP optimization: 1
CPLEX> New value for mixed integer optimality gap tolerance: 0.01
CPLEX> New value for integrality tolerance: 1e-12
CPLEX> New value for deterministic time limit in ticks: 75000
CPLEX> Problem 'C:\Users\llavin\Desktop\test826\logs\tmpjbqgjbwk.pyomo.lp' read.
Read time = 0.23 sec. (13.94 ticks)
CPLEX> MIP start file 'C:\Users\llavin\Desktop\test826\logs\tmp2rcrrex3.cplex.mst' read.
CPLEX> Problem name         : C:\Users\llavin\Desktop\test826\logs\tmpjbqgjbwk.pyomo.lp
Objective sense      : Maximize
Variables            :   54529  [Nneg: 1,  Box: 22724,  Free: 4464,
                                 Binary: 27340]
Objective nonzeros   :    9725
Linear constraints   :  123253  [Less: 41346,  Greater: 59096,  Equal: 22811]
  Nonzeros           :  293217
  RHS nonzeros       :   67491

Variables            : Min LB: -5000.000        Max UB: 1000000.       
Objective nonzeros   : Min   : 0.3666667        Max   : 2500.000       
Linear constraints   :
  Nonzeros           : Min   : 0.3666667        Max   : 1000000.       
  RHS nonzeros       : Min   : 0.3666667        Max   : 1000000.       
CPLEX> CPXPARAM_Parallel                                -1
CPXPARAM_Emphasis_MIP                            1
CPXPARAM_DetTimeLimit                            75000
CPXPARAM_MIP_Tolerances_MIPGap                   0.01
CPXPARAM_MIP_Tolerances_Integrality              9.9999999999999998e-13
Warning:  No solution found from 1 MIP starts.
Retaining values of one MIP start for possible repair.
Tried aggregator 4 times.
MIP Presolve eliminated 88648 rows and 19671 columns.
MIP Presolve added 3380 rows and 0 columns.
MIP Presolve modified 24831 coefficients.
Aggregator did 13008 substitutions.
Reduced MIP has 24977 rows, 21294 columns, and 71843 nonzeros.
Reduced MIP has 8424 binaries, 0 generals, 0 SOSs, and 0 indicators.
Presolve time = 0.31 sec. (193.08 ticks)
Probing fixed 418 vars, tightened 3913 bounds.
Probing time = 0.06 sec. (19.00 ticks)
Tried aggregator 2 times.
MIP Presolve eliminated 940 rows and 838 columns.
MIP Presolve modified 3035 coefficients.
Aggregator did 24 substitutions.
Reduced MIP has 24013 rows, 20432 columns, and 69043 nonzeros.
Reduced MIP has 8006 binaries, 0 generals, 0 SOSs, and 0 indicators.
Presolve time = 0.11 sec. (89.33 ticks)
Probing fixed 0 vars, tightened 246 bounds.
Probing time = 0.14 sec. (22.77 ticks)
Clique table members: 44796.
MIP emphasis: integer feasibility.
MIP search method: dynamic search.
Parallel mode: opportunistic, using up to 32 threads.
Root relaxation solution time = 0.44 sec. (626.54 ticks)

        Nodes                                         Cuts/
   Node  Left     Objective  IInf  Best Integer    Best Bound    ItCnt     Gap

      0     0   101940.2205   278                 101940.2205     5147         
      0     0    96409.6852   197                   Cuts: 137     5336         
      0     0    96157.2297   195                    Cuts: 54     5366         
      0     0    96011.5460   199                     Cuts: 4     5380         
Repair heuristic found nothing.
      0    30    79034.8115   175                    Cuts: 17     5882         
Elapsed time = 4.09 sec. (1841.24 ticks, tree = 0.02 MB, solutions = 0)
    730   308    infeasible                        92923.9168     7747         
   1372   961    43325.7329    76                  92923.9168    15690         
   2029  1453    21404.8837    95                  92923.9168    24387         
   2697  1624    infeasible                        92923.9168    31174         
   3346  1973   -73941.9625    57                  92191.5956    44265         
   3939  2273     9057.8730    87                  91015.1320    54731         
   4534  2645   -23972.2284    44                  91015.1320    64876         
   5098  3249   -14607.4308    43                  91015.1320    79796         
   5651  3535  -455603.5702    64                  91015.1320    90173         
   8291  4996   -12970.8211    42                  91015.1320   136387         
Elapsed time = 20.91 sec. (4943.50 ticks, tree = 241.36 MB, solutions = 0)
  10591  6830   -37985.8510    59                  91015.1320   190203         
  12731  8666    infeasible                        91015.1320   291118         
  15029  9386    infeasible                        90071.4576   327200         
  17513 10259  -178263.9981   158                  90071.4576   372135         
  19757 11655     6447.5663    68                  88093.8857   461394         
* 20835+ 7942                            0.0000    88093.8857              --- 
  23407  8181        cutoff              0.0000    82484.1563   547852     --- 
* 24185+ 6378                            0.0001    59145.9099              --- 
  24185  6383    52727.6228   105        0.0001    59098.3579   602379     --- 
  25845   498    12240.4959    75        0.0001    51768.3087   627611     --- 
  28052  1260        cutoff              0.0001    51768.3087   653814     --- 
Elapsed time = 67.89 sec. (15994.61 ticks, tree = 30.85 MB, solutions = 2)
  31479  3125        cutoff              0.0001    51768.3087   706892     --- 
  35271  4894     4622.3755    43        0.0001    51768.3087   737377     --- 
  38721  6213     4622.3755    43        0.0001    51768.3087   763005     --- 
  42305  7741     1730.2673    25        0.0001    51768.3087   797529     --- 
  45737  9487        cutoff              0.0001    51768.3087   837587     --- 
  49253 10546    infeasible              0.0001    51768.3087   863012     --- 
  52661 12670     5649.9387     7        0.0001    51768.3087   917171     --- 
  55066 13449        cutoff              0.0001    51768.3087   940782     --- 
  55367 14279     2330.3652    39        0.0001    51768.3087   963884     --- 
  55475 14792     2398.3464    41        0.0001    51768.3087   978924     --- 
Elapsed time = 115.88 sec. (25542.48 ticks, tree = 144.00 MB, solutions = 2)
  56037 14983      650.9700    72        0.0001    51768.3087   987775     --- 
  58342 15072     4916.8466    11        0.0001    51768.3087   990471     --- 
  61811 15571        cutoff              0.0001    51768.3087  1004571     --- 
  65241 15608    infeasible              0.0001    51768.3087  1005679     --- 
  68601 18578     2976.2118    18        0.0001    51768.3087  1110278     --- 
  71958 17728      351.5023    88        0.0001    51768.3087  1071758     --- 
  75387 20333     2777.9120    44        0.0001    51768.3087  1175821     --- 
  78837 19439        cutoff              0.0001    51768.3087  1147627     --- 
  82135 20921     2028.6398    10        0.0001    51768.3087  1199715     --- 
  85359 21008     3208.2052    11        0.0001    51768.3087  1204662     --- 
Elapsed time = 164.06 sec. (35084.03 ticks, tree = 188.52 MB, solutions = 2)
  88671 23041     2469.5815    35        0.0001    51768.3087  1295631     --- 
  92144 23159     1267.4777    97        0.0001    51768.3087  1301144     --- 
  95740 23526     5763.2849     7        0.0001    51768.3087  1315623     --- 
  99342 24550     4170.6579    11        0.0001    51768.3087  1379975     --- 
 102945 24619     1462.9920    13        0.0001    51768.3087  1383106     --- 
 106368 25860     2945.8393    15        0.0001    51768.3087  1442173     --- 
 109775 25445     3725.9072    18        0.0001    51768.3087  1415340     --- 
 113010 28502       14.7584     6        0.0001    51768.3087  1565046     --- 
 115505 27177        cutoff              0.0001    51768.3087  1501436     --- 
 117301 28565      300.0271    11        0.0001    51768.3087  1565820     --- 
Elapsed time = 206.89 sec. (44624.49 ticks, tree = 228.78 MB, solutions = 2)
 119110 28514     3009.7180    12        0.0001    51768.3087  1566254     --- 
 120238 29538        cutoff              0.0001    51768.3087  1606436     --- 
 121481 30842     1158.9044    11        0.0001    51768.3087  1685986     --- 
 123436 30715     2684.4185    15        0.0001    51768.3087  1676460     --- 
 126425 30991     1582.1593    24        0.0001    51768.3087  1687581     --- 
 129883 30943    26330.6980    66        0.0001    51768.3087  1694366     --- 
 133370 31135     4267.2003    13        0.0001    50545.8228  1695968     --- 
 136844 31499        cutoff              0.0001    50545.8228  1731297     --- 
 140300 33616     2054.9283    16        0.0001    50545.8228  1868962     --- 
 143698 33415        cutoff              0.0001    50545.8228  1852614     --- 
Elapsed time = 254.28 sec. (54164.06 ticks, tree = 258.21 MB, solutions = 2)
 147035 33412     1782.7000    16        0.0001    50545.8228  1848829     --- 
 150302 34407        cutoff              0.0001    50545.8228  1907701     --- 
 153502 35107     1374.5210    14        0.0001    50545.8228  1957507     --- 
 156625 35646     2261.5251    13        0.0001    50545.8228  1988926     --- 
 159745 35119      636.1762    16        0.0001    47046.0251  1959459     --- 
 163126 36687     3506.3027    12        0.0001    47046.0251  2052023     --- 
 166401 36343        cutoff              0.0001    47046.0251  2037753     --- 
 169590 36511        cutoff              0.0001    47046.0251  2051587     --- 
 172670 37458     2907.1393    12        0.0001    47046.0251  2114620     --- 
 175445 37333        cutoff              0.0001    47046.0251  2102292     --- 
Elapsed time = 295.72 sec. (63703.19 ticks, tree = 287.50 MB, solutions = 2)
 177988 37933     1365.0213    18        0.0001    47046.0251  2146347     --- 
 180256 38355     3009.7180     8        0.0001    47046.0251  2177069     --- 
 181934 39009        cutoff              0.0001    47046.0251  2224255     --- 
 183143 39256      185.2585    53        0.0001    47046.0251  2242770     --- 
 183681 41302        cutoff              0.0001    47046.0251  2395664     --- 
 183942 41319      660.6281    54        0.0001    47046.0251  2396910     --- 
 184289 41269        cutoff              0.0001    47046.0251  2395513     --- 
 184889 41277     1958.9019    19        0.0001    47046.0251  2396624     --- 
 185927 41109     4751.0779    14        0.0001    47046.0251  2388699     --- 
 186963 41271      780.5966    14        0.0001    47046.0251  2396556     --- 
Elapsed time = 310.72 sec. (73248.84 ticks, tree = 315.27 MB, solutions = 2)
 187463 41307     3659.2284    15        0.0001    47046.0251  2397424     --- 

Cover cuts applied:  40
Implied bound cuts applied:  37
Flow cuts applied:  181
Mixed integer rounding cuts applied:  43
Lift and project cuts applied:  11
Gomory fractional cuts applied:  7

Root node processing (before b&c):
  Real time             =    2.70 sec. (1815.24 ticks)
Parallel b&c, 32 threads:
  Real time             =  308.51 sec. (73223.31 ticks)
  Sync time (average)   =    1.58 sec.
  Wait time (average)   =    0.26 sec.
                          ------------
Total (root+branch&cut) =  311.22 sec. (75038.55 ticks)

Solution pool: 2 solutions saved.

MIP - Deterministic time limit exceeded, integer feasible:  Objective =  1.0817281145e-04
Current MIP best bound =  4.7046025050e+04 (gap = 47046, 4.3e+10%)
Solution time =  311.23 sec.  Iterations = 2465224  Nodes = 187926 (42049)
Deterministic time = 75038.71 ticks  (241.10 ticks/sec)

CPLEX> Incumbent solution written to file 'C:\Users\llavin\Desktop\test826\logs\tmpsqp2_ebh.cplex.sol'.
CPLEX> Exporting results... 
